5
252
762
40	24
1	4	6	9	7	8	8	4	22	3	
2	5	4	6	19	4	12	3	16	2	15	2	
3	2	5	11	6	5	
4	2	6	5	8	3	
5	4	5	8	5	6	7	4	14	3	
6	2	5	4	17	3	
7	3	8	5	5	5	7	4	
8	3	6	9	7	6	4	5	
9	2	11	2	5	2	
10	1	6	10	
11	5	5	12	5	9	6	5	4	5	5	4	
12	5	7	10	9	4	8	4	5	4	9	2	
13	1	6	4	
14	4	23	4	9	4	9	3	14	2	
15	5	24	4	12	4	10	4	5	4	17	3	
16	1	8	12	
17	5	6	10	4	10	5	6	7	4	4	3	
18	4	7	7	5	5	7	4	5	4	
19	1	7	5	
20	3	6	6	19	2	5	2	
21	2	7	8	8	5	
22	2	5	6	10	5	
23	5	4	8	24	4	6	4	13	3	21	2	
24	4	7	6	7	3	6	3	6	2	
25	3	6	7	5	7	7	3	
26	2	7	12	5	12	
27	5	5	6	11	4	8	3	8	3	6	3	
28	1	21	3	
29	3	6	5	5	3	7	2	
30	4	5	6	10	4	15	3	13	3	
31	4	6	4	15	3	13	3	5	3	
32	2	24	3	13	2	
33	5	7	6	12	4	7	4	24	3	7	3	
34	5	7	8	9	6	7	5	6	3	15	2	
35	2	6	6	17	3	
36	3	7	5	23	4	23	2	
37	3	5	11	4	5	20	3	
38	2	10	4	4	3	
39	3	12	4	5	4	9	3	
40	2	17	4	10	2	
41	5	6	12	10	5	8	5	6	3	5	2	
42	4	7	11	5	7	10	4	10	2	
43	3	5	10	11	3	6	3	
44	3	11	5	21	3	14	2	
45	5	9	4	21	3	17	3	4	3	4	2	
46	4	5	11	23	4	16	3	16	3	
47	5	7	9	10	5	6	4	6	4	7	3	
48	2	8	8	12	6	
49	5	6	8	11	6	8	5	6	5	8	4	
50	1	6	4	
51	4	5	8	9	4	9	3	6	3	
52	1	10	5	
53	2	16	4	12	2	
54	1	4	11	
55	5	8	6	8	4	5	4	10	3	8	3	
56	2	17	4	9	3	
57	5	11	6	7	4	5	4	6	3	4	3	
58	3	8	6	23	4	9	4	
59	1	13	3	
60	1	12	2	
61	4	9	5	9	3	16	2	9	2	
62	1	7	6	
63	1	7	5	
64	1	10	2	
65	2	6	3	12	2	
66	1	20	2	
67	2	4	9	4	3	
68	4	9	6	5	6	9	4	7	3	
69	4	6	10	5	7	11	3	8	3	
70	2	8	4	6	4	
71	2	7	11	8	4	
72	4	7	9	11	6	4	6	8	4	
73	4	9	5	20	3	20	2	18	2	
74	1	9	2	
75	5	7	6	5	6	7	4	7	4	9	2	
76	2	18	4	12	3	
77	5	7	6	16	4	24	3	14	3	9	3	
78	4	11	5	11	4	15	3	9	3	
79	4	5	8	4	8	7	6	7	6	
80	2	11	6	6	6	
81	2	7	7	22	3	
82	3	9	4	18	2	14	2	
83	1	12	2	
84	2	8	7	17	2	
85	1	6	4	
86	3	7	10	24	4	20	3	
87	2	7	5	5	2	
88	5	5	11	21	4	4	4	8	3	10	2	
89	3	7	10	7	10	9	3	
90	1	5	7	
91	2	5	4	7	2	
92	5	4	4	10	3	8	3	7	3	20	2	
93	4	5	11	11	5	10	5	11	2	
94	1	8	9	
95	1	8	4	
96	1	5	8	
97	5	12	5	7	5	19	4	16	3	11	3	
98	3	6	7	22	4	7	3	
99	4	11	3	7	3	19	2	7	2	
100	4	8	5	7	5	8	3	11	2	
101	4	4	11	7	6	6	2	5	2	
102	1	4	6	
103	3	11	5	12	2	6	2	
104	4	7	9	5	8	14	4	5	3	
105	4	5	7	6	4	11	3	4	3	
106	2	6	3	8	2	
107	5	12	6	7	5	8	4	23	3	21	3	
108	5	9	5	8	5	20	3	11	2	6	2	
109	1	13	4	
110	2	9	3	5	2	
111	1	11	3	
112	1	7	9	
113	5	7	10	19	4	12	3	5	3	5	3	
114	5	5	9	23	3	12	3	7	2	5	2	
115	5	11	5	6	5	21	3	17	2	10	2	
116	5	4	10	8	9	7	6	5	6	14	2	
117	3	7	9	7	9	7	4	
118	5	6	12	7	11	11	4	8	3	19	2	
119	5	5	9	15	3	9	3	6	3	6	3	
120	1	5	3	
121	2	12	6	11	4	
122	4	6	6	4	4	7	3	7	2	
123	1	15	3	
124	5	7	12	7	5	12	4	7	3	7	3	
125	3	6	4	12	3	4	3	
126	1	9	6	
127	2	6	6	7	4	
128	1	17	3	
129	2	7	6	21	3	
130	3	5	10	10	5	5	3	
131	2	7	12	10	4	
132	1	4	12	
133	4	5	3	22	2	10	2	6	2	
134	2	5	7	23	3	
135	1	8	4	
136	2	12	5	11	4	
137	3	6	8	18	3	6	3	
138	2	6	4	4	4	
139	3	5	8	22	3	6	2	
140	1	6	4	
141	1	13	2	
142	2	5	6	13	2	
143	5	5	11	6	9	8	4	20	3	7	2	
144	3	6	6	9	5	8	5	
145	5	8	6	11	4	10	3	8	3	4	3	
146	3	11	5	17	4	7	4	
147	4	24	3	19	3	17	3	8	2	
148	4	7	11	13	4	5	4	8	3	
149	4	7	11	5	11	5	5	14	3	
150	5	8	5	7	5	8	4	5	4	10	3	
151	5	5	7	10	6	7	4	9	3	10	2	
152	5	7	9	20	3	18	3	9	3	5	3	
153	1	11	3	
154	1	11	4	
155	3	6	4	9	3	14	2	
156	4	7	8	5	8	12	4	9	3	
157	3	6	7	11	3	5	2	
158	1	9	4	
159	3	5	10	20	3	9	3	
160	3	23	3	12	3	10	2	
161	4	12	6	10	6	7	3	5	3	
162	4	6	8	7	6	5	3	5	3	
163	3	5	4	22	3	8	3	
164	5	8	8	24	4	21	4	5	4	17	2	
165	2	5	4	18	3	
166	5	4	7	15	4	10	3	19	2	11	2	
167	2	5	4	17	2	
168	3	7	4	8	3	6	2	
169	5	5	11	7	9	21	4	6	4	4	4	
170	2	6	8	17	3	
171	1	8	3	
172	4	7	12	7	8	19	3	15	2	
173	2	5	10	19	3	
174	1	4	3	
175	2	5	5	7	3	
176	2	24	4	8	3	
177	3	7	4	7	2	6	2	
178	5	5	5	4	5	18	4	12	4	9	3	
179	3	5	9	9	4	4	3	
180	5	6	6	5	6	6	4	14	3	5	3	
181	4	7	10	4	7	9	6	8	5	
182	1	19	4	
183	3	7	9	9	5	23	3	
184	5	5	11	9	5	5	4	7	3	8	2	
185	5	5	5	20	4	8	4	7	3	11	2	
186	3	8	7	10	4	5	3	
187	3	10	4	9	3	11	2	
188	4	22	4	14	3	5	3	11	2	
189	5	5	4	7	3	6	3	17	2	9	2	
190	2	6	2	5	2	
191	5	9	5	8	4	23	3	17	3	14	2	
192	1	18	2	
193	2	9	5	8	3	
194	2	8	12	7	5	
195	5	23	4	17	3	12	2	8	2	5	2	
196	2	8	11	8	2	
197	5	4	7	9	4	8	4	11	3	7	3	
198	4	9	5	5	4	4	3	21	2	
199	1	19	3	
200	3	6	7	6	4	5	4	
201	5	7	9	8	6	8	5	8	4	14	2	
202	4	21	3	11	3	7	3	5	2	
203	1	14	4	
204	4	5	11	6	8	12	4	14	2	
205	2	14	2	9	2	
206	4	12	6	8	4	7	3	10	2	
207	2	7	8	5	3	
208	2	9	5	12	4	
209	1	6	6	
210	5	5	12	7	11	7	10	7	7	9	6	
211	1	13	4	
212	4	4	10	11	5	10	4	4	3	
213	1	6	3	
214	2	7	9	8	2	
215	3	4	5	15	4	7	4	
216	3	7	10	5	6	4	2	
217	3	5	8	7	5	5	3	
218	1	12	3	
219	5	13	3	8	3	7	3	20	2	9	2	
220	1	14	4	
221	5	12	6	4	6	7	4	19	3	4	3	
222	3	8	6	9	3	14	2	
223	2	20	4	24	3	
224	2	4	12	4	7	
225	2	7	4	22	3	
226	2	11	6	5	4	
227	4	23	3	21	3	6	3	8	2	
228	4	4	10	5	8	7	6	13	3	
229	4	7	10	5	9	16	3	6	2	
230	3	7	7	7	3	4	3	
231	1	6	10	
232	2	12	5	23	3	
233	5	6	10	6	4	8	3	22	2	21	2	
234	4	5	12	9	6	4	6	11	4	
235	5	6	7	5	7	11	4	10	3	12	2	
236	5	4	8	4	6	8	4	4	4	5	2	
237	5	7	8	9	6	6	5	11	4	9	3	
238	2	9	4	6	2	
239	3	6	5	5	3	4	3	
240	3	9	5	7	3	7	3	
241	1	6	3	
242	3	10	6	21	4	10	2	
243	4	4	11	7	7	10	5	7	4	
244	5	7	4	10	3	17	2	7	2	5	2	
245	2	13	3	10	2	
246	3	7	10	21	3	10	3	
247	5	5	9	7	8	21	3	6	3	22	2	
248	5	6	8	11	6	7	4	23	2	11	2	
249	5	18	3	17	3	11	3	9	3	7	2	
250	4	7	4	19	2	11	2	8	2	
251	4	5	5	5	5	11	4	8	4	
252	2	5	9	8	3	
